NAME : cgl_57.9722.tour
COMMENT : Length = 9722
COMMENT : Found by LKH-3 [Keld Helsgaun] Fri Nov  8 19:20:30 2024
TYPE : TOUR
DIMENSION : 57
TOUR_SECTION
44
50
43
51
53
54
55
56
57
1
4
3
2
5
6
7
10
9
8
11
12
14
13
15
16
17
18
19
22
24
21
23
20
25
33
32
30
28
29
27
31
26
34
35
36
41
40
37
38
39
42
52
49
47
46
48
45
-1
EOF
